%%%mzn-stat: initTime=0.016793452
%%%mzn-stat: objective=203
%%%mzn-stat: nodes=8484
%%%mzn-stat: restarts=0
%%%mzn-stat: peakDepth=234
%%%mzn-stat: solveTime=0.71596852
%%%mzn-stat: variables=1540
%%%mzn-stat: propagators=1171
%%%mzn-stat: failures=1783
%%%mzn-stat: propagations=289234
%%%mzn-stat: nogoods=1783
%%%mzn-stat: AverageConflictSize=33.704430734716766
%%%mzn-stat: NumUnitNogoodsLearned=202
%%%mzn-stat: AverageLearnedNogoodLength=51.90241166573191
%%%mzn-stat: AverageBacktrackAmount=0
%%%mzn-stat: AverageLbd=7.8743690409422324
%%%mzn-stat-end
maxleg = 203;
succ = array1d(1..50,[41, 31, 38, 3, 19, 49, 6, 4, 44, 43, 42, 29, 21, 12, 33, 2, 7, 47, 45, 13, 34, 16, 9, 20, 18, 36, 46, 10, 48, 1, 8, 39, 50, 11, 27, 32, 25, 14, 24, 5, 22, 23, 17, 30, 26, 15, 28, 37, 35, 40]);
% time elapsed: 2.04 s
----------
==========
% time elapsed: 2.04 s
%%%mzn-stat: initTime=0.016793452
%%%mzn-stat: objective=203
%%%mzn-stat: nodes=8484
%%%mzn-stat: restarts=0
%%%mzn-stat: peakDepth=234
%%%mzn-stat: solveTime=0.715972715
%%%mzn-stat: variables=1540
%%%mzn-stat: propagators=1171
%%%mzn-stat: failures=1783
%%%mzn-stat: propagations=289234
%%%mzn-stat: nogoods=1783
%%%mzn-stat: AverageConflictSize=33.704430734716766
%%%mzn-stat: NumUnitNogoodsLearned=202
%%%mzn-stat: AverageLearnedNogoodLength=51.90241166573191
%%%mzn-stat: AverageBacktrackAmount=0
%%%mzn-stat: AverageLbd=7.8743690409422324
%%%mzn-stat-end
